4 4 100 1 2
0 700
 1 40.00 50.00 0.00 0.00 0.00 0 0 0 3390
 2 52.00 75.00 90.00 10.00 20.00 1 1 1 213 568
 3 45.00 70.00 90.00 30.00 10.00 1 1 1 22 563
 4 62.00 69.00 90.00 10.00 10.00 1 1 1 1030 1463
 5 60.00 66.00 90.00 10.00 10.00 1 1 1 1154 1527
 6 42.00 65.00 90.00 10.00 20.00 1 1 1 15 402
 7 16.00 42.00 90.00 20.00 30.00 1 1 1 331 822
 8 58.00 70.00 90.00 20.00 20.00 1 1 1 965 1340
 9 34.00 60.00 90.00 20.00 10.00 1 1 1 2653 3280
 10 28.00 70.00 90.00 10.00 30.00 1 1 1 2385 2976
 11 35.00 66.00 90.00 10.00 10.00 1 1 1 2628 3113
 12 35.00 69.00 90.00 10.00 20.00 1 1 1 2603 2952
 13 25.00 85.00 90.00 20.00 10.00 1 1 1 1985 2412
 14 22.00 75.00 90.00 30.00 20.00 1 1 1 2310 2659
 15 22.00 85.00 90.00 10.00 10.00 1 1 1 1846 2365
 16 20.00 80.00 90.00 40.00 10.00 1 1 1 2077 2514
 17 20.00 85.00 90.00 40.00 20.00 1 1 1 1763 2264
 18 18.00 75.00 90.00 20.00 20.00 1 1 1 2143 2638
 19 15.00 75.00 90.00 20.00 10.00 1 1 1 1560 2083
 20 15.00 80.00 90.00 10.00 10.00 1 1 1 1689 2144
 21 30.00 50.00 90.00 10.00 10.00 1 1 1 10 645
 22 30.00 56.00 90.00 20.00 20.00 1 1 1 2675 3288
 23 28.00 52.00 90.00 20.00 30.00 1 1 1 12 505
 24 14.00 66.00 90.00 10.00 10.00 1 1 1 1519 1926
 25 25.00 50.00 90.00 10.00 40.00 1 1 1 23 368
 26 22.00 66.00 90.00 40.00 10.00 1 1 1 2380 2787
 27 8.00 62.00 90.00 10.00 10.00 1 1 1 1330 1919
 28 23.00 52.00 90.00 10.00 10.00 1 1 1 93 484
 29 4.00 55.00 90.00 20.00 20.00 1 1 1 1268 1785
 30 20.00 50.00 90.00 10.00 10.00 1 1 1 168 787
 31 20.00 55.00 90.00 10.00 30.00 1 1 1 170 595
 32 10.00 35.00 90.00 20.00 10.00 1 1 1 585 1136
 33 10.00 40.00 90.00 30.00 30.00 1 1 1 448 897
 34 8.00 40.00 90.00 40.00 10.00 1 1 1 499 1030
 35 8.00 45.00 90.00 20.00 10.00 1 1 1 1190 1661
 36 5.00 35.00 90.00 10.00 10.00 1 1 1 666 1245
 37 5.00 45.00 90.00 10.00 10.00 1 1 1 1076 1589
 38 2.00 40.00 90.00 20.00 10.00 1 1 1 772 1329
 39 0.00 40.00 90.00 30.00 20.00 1 1 1 890 1395
 40 0.00 45.00 90.00 20.00 10.00 1 1 1 1036 1439
 41 36.00 18.00 90.00 10.00 40.00 1 1 1 1612 2185
 42 35.00 32.00 90.00 10.00 10.00 1 1 1 2599 3076
 43 33.00 32.00 90.00 20.00 40.00 1 1 1 2529 2962
 44 33.00 35.00 90.00 10.00 10.00 1 1 1 2463 2842
 45 32.00 20.00 90.00 10.00 30.00 1 1 1 1745 2240
 46 30.00 30.00 90.00 10.00 30.00 1 1 1 1932 2437
 47 34.00 25.00 90.00 30.00 30.00 1 1 1 1884 2293
 48 30.00 35.00 90.00 10.00 10.00 1 1 1 2348 2771
 49 36.00 40.00 90.00 10.00 20.00 1 1 1 2715 3156
 50 48.00 20.00 90.00 10.00 10.00 1 1 1 812 1281
 51 26.00 32.00 90.00 10.00 10.00 1 1 1 2018 2725
 52 25.00 30.00 90.00 10.00 10.00 1 1 1 2015 2544
 53 25.00 35.00 90.00 10.00 10.00 1 1 1 2201 2728
 54 44.00 5.00 90.00 20.00 40.00 1 1 1 1078 1593
 55 42.00 10.00 90.00 40.00 10.00 1 1 1 998 1481
 56 42.00 15.00 90.00 10.00 10.00 1 1 1 897 1392
 57 40.00 5.00 90.00 30.00 10.00 1 1 1 1199 1660
 58 38.00 15.00 90.00 40.00 10.00 1 1 1 1552 2057
 59 38.00 5.00 90.00 30.00 30.00 1 1 1 1263 1780
 60 38.00 10.00 90.00 10.00 10.00 1 1 1 1498 1921
 61 35.00 5.00 90.00 20.00 40.00 1 1 1 1325 1904
 62 50.00 30.00 90.00 10.00 10.00 1 1 1 223 738
 63 50.00 35.00 90.00 20.00 30.00 1 1 1 18 474
 64 50.00 40.00 90.00 50.00 10.00 1 1 1 14 360
 65 48.00 30.00 90.00 10.00 10.00 1 1 1 246 899
 66 44.00 25.00 90.00 10.00 40.00 1 1 1 704 1197
 67 47.00 35.00 90.00 10.00 20.00 1 1 1 393 942
 68 47.00 40.00 90.00 10.00 10.00 1 1 1 12 424
 69 42.00 30.00 90.00 10.00 10.00 1 1 1 641 1070
 70 45.00 35.00 90.00 10.00 20.00 1 1 1 534 985
 71 95.00 30.00 90.00 30.00 20.00 1 1 1 2119 2682
 72 95.00 35.00 90.00 20.00 10.00 1 1 1 2079 2532
 73 53.00 30.00 90.00 10.00 10.00 1 1 1 131 644
 74 92.00 30.00 90.00 10.00 20.00 1 1 1 2169 2818
 75 53.00 35.00 90.00 50.00 20.00 1 1 1 87 498
 76 45.00 65.00 90.00 20.00 10.00 1 1 1 15 607
 77 90.00 35.00 90.00 10.00 10.00 1 1 1 2002 2419
 78 72.00 45.00 90.00 10.00 30.00 1 1 1 2701 3258
 79 78.00 40.00 90.00 20.00 20.00 1 1 1 2599 3164
 80 87.00 30.00 90.00 10.00 20.00 1 1 1 2505 2870
 81 85.00 25.00 90.00 10.00 40.00 1 1 1 2369 2816
 82 85.00 35.00 90.00 30.00 20.00 1 1 1 2563 3002
 83 75.00 55.00 90.00 20.00 10.00 1 1 1 1783 2226
 84 72.00 55.00 90.00 10.00 30.00 1 1 1 1591 2232
 85 70.00 58.00 90.00 20.00 10.00 1 1 1 1513 1928
 86 86.00 46.00 90.00 30.00 20.00 1 1 1 1829 2388
 87 66.00 55.00 90.00 10.00 20.00 1 1 1 1604 2027
 88 64.00 46.00 90.00 20.00 10.00 1 1 1 2976 3275
 89 65.00 60.00 90.00 30.00 10.00 1 1 1 1338 1913
 90 56.00 64.00 90.00 10.00 20.00 1 1 1 1116 1753
 91 60.00 55.00 90.00 10.00 20.00 1 1 1 2789 3279
 92 60.00 60.00 90.00 10.00 10.00 1 1 1 1349 1712
 93 67.00 85.00 90.00 20.00 50.00 1 1 1 518 1029
 94 42.00 58.00 90.00 40.00 20.00 1 1 1 8 509
 95 65.00 82.00 90.00 10.00 10.00 1 1 1 549 1186
 96 62.00 80.00 90.00 30.00 30.00 1 1 1 744 1177
 97 62.00 40.00 90.00 10.00 20.00 1 1 1 2713 3275
 98 60.00 85.00 90.00 30.00 20.00 1 1 1 397 956
 99 58.00 75.00 90.00 20.00 10.00 1 1 1 839 1276
 100 55.00 80.00 90.00 10.00 10.00 1 1 1 272 701
 101 55.00 85.00 90.00 20.00 50.00 1 1 1 373 790
